Geographic Exponential Decay
40 226 30 191 59 298 140 260 32 6 69 45 278 267 166 106 181 303 168 233 253 150 248 264 246 199 311 134 152 301 211 162 89 52 318 312 19 49 195 221 236
p edge 320 1305
e 0 21 1.0
e 0 48 8.0
e 0 279 6.0
e 0 130 6.0
e 1 48 9.0
e 2 232 3.0
e 3 130 8.0
e 3 37 9.0
e 3 33 1.0
e 3 88 8.0
e 4 249 10.0
e 4 121 2.0
e 5 282 1.0
e 6 239 83.0
e 6 232 48.0
e 6 33 14.0
e 6 190 29.0
e 6 276 24.0
e 6 20 71.0
e 6 80 45.0
e 6 155 32.0
e 6 124 68.0
e 6 274 29.0
e 6 167 31.0
e 6 12 20.0
e 6 149 35.0
e 6 99 31.0
e 6 256 76.0
e 6 16 19.0
e 6 34 43.0
e 6 93 29.0
e 6 122 37.0
e 6 131 65.0
e 6 56 18.0
e 6 25 4.0
e 6 70 70.0
e 6 250 94.0
e 6 81 57.0
e 6 30 20.0
e 6 201 34.0
e 7 8 4.0
e 7 255 3.0
e 8 119 4.0
e 8 206 4.0
e 8 222 1.0
e 9 229 12.0
e 9 127 18.0
e 9 139 18.0
e 9 155 24.0
e 9 83 13.0
e 9 247 9.0
e 9 186 11.0
e 10 154 1.0
e 10 269 1.0
e 11 304 4.0
e 13 78 2.0
e 13 226 34.0
e 14 28 8.0
e 14 166 74.0
e 14 77 4.0
e 14 182 1.0
e 15 49 55.0
e 17 122 1.0
e 17 275 2.0
e 18 173 2.0
e 18 159 6.0
e 19 210 1.0
e 19 164 73.0
e 19 108 74.0
e 19 37 39.0
e 19 281 94.0
e 19 177 1.0
e 19 113 75.0
e 19 191 61.0
e 19 255 28.0
e 19 165 35.0
e 19 192 32.0
e 19 136 89.0
e 19 277 39.0
e 19 83 87.0
e 19 81 53.0
e 19 154 74.0
e 19 22 62.0
e 19 287 24.0
e 19 249 70.0
e 19 51 78.0
e 19 53 56.0
e 19 195 51.0
e 19 58 50.0
e 19 82 80.0
e 19 133 80.0
e 19 286 29.0
e 19 100 52.0
e 20 255 2.0
e 21 190 1.0
e 21 311 78.0
e 21 23 10.0
e 23 270 4.0
e 24 271 5.0
e 24 161 3.0
e 25 42 10.0
e 25 299 5.0
e 25 49 76.0
e 26 91 5.0
e 26 99 1.0
e 27 57 1.0
e 29 270 19.0
e 29 65 13.0
e 29 299 1.0
e 29 142 10.0
e 29 169 19.0
e 29 85 5.0
e 29 249 16.0
e 30 301 52.0
e 30 272 19.0
e 30 49 76.0
e 30 39 86.0
e 30 308 2.0
e 30 61 57.0
e 30 150 10.0
e 30 235 61.0
e 30 78 9.0
e 30 50 66.0
e 30 184 26.0
e 30 116 59.0
e 30 227 53.0
e 30 104 21.0
e 30 133 93.0
e 30 113 32.0
e 30 302 35.0
e 30 123 5.0
e 30 266 98.0
e 30 12 69.0
e 30 96 63.0
e 30 273 60.0
e 30 89 51.0
e 30 135 15.0
e 30 38 81.0
e 30 255 65.0
e 31 248 65.0
e 31 18 20.0
e 31 146 19.0
e 31 167 20.0
e 31 207 14.0
e 31 195 63.0
e 31 92 1.0
e 32 33 6.0
e 32 36 82.0
e 32 144 96.0
e 32 185 76.0
e 32 70 88.0
e 32 255 22.0
e 32 262 60.0
e 32 142 24.0
e 32 55 78.0
e 32 60 34.0
e 32 223 81.0
e 32 6 26.0
e 32 29 34.0
e 32 66 44.0
e 32 154 23.0
e 32 280 100.0
e 32 300 74.0
e 32 34 17.0
e 32 210 13.0
e 32 209 72.0
e 32 118 3.0
e 32 107 22.0
e 32 130 18.0
e 32 132 32.0
e 32 94 75.0
e 32 114 32.0
e 32 141 33.0
e 33 222 12.0
e 35 179 5.0
e 35 223 2.0
e 39 86 7.0
e 39 232 10.0
e 39 262 4.0
e 40 22 23.0
e 40 192 15.0
e 40 214 10.0
e 40 9 6.0
e 40 188 4.0
e 40 213 7.0
e 40 44 13.0
e 41 146 4.0
e 41 137 12.0
e 42 141 8.0
e 43 99 4.0
e 43 38 1.0
e 45 55 37.0
e 45 127 90.0
e 45 212 79.0
e 45 33 36.0
e 45 137 16.0
e 45 91 78.0
e 45 13 8.0
e 45 87 93.0
e 45 128 7.0
e 45 318 81.0
e 45 217 48.0
e 45 26 39.0
e 45 100 28.0
e 45 201 27.0
e 45 27 18.0
e 45 143 44.0
e 45 166 64.0
e 45 215 71.0
e 45 219 85.0
e 45 145 48.0
e 45 158 84.0
e 45 192 92.0
e 45 305 98.0
e 45 270 64.0
e 45 264 53.0
e 45 251 87.0
e 45 92 39.0
e 46 314 3.0
e 46 223 6.0
e 47 195 53.0
e 48 84 8.0
e 48 173 8.0
e 49 165 3.0
e 49 110 38.0
e 49 211 47.0
e 49 307 68.0
e 49 34 62.0
e 49 119 96.0
e 49 120 79.0
e 49 239 67.0
e 49 90 98.0
e 49 77 90.0
e 49 265 92.0
e 49 295 37.0
e 49 65 36.0
e 49 270 71.0
e 49 95 24.0
e 49 128 9.0
e 49 99 66.0
e 49 242 95.0
e 49 133 93.0
e 49 50 74.0
e 49 233 2.0
e 49 253 60.0
e 49 122 92.0
e 49 57 51.0
e 51 93 5.0
e 52 56 56.0
e 52 267 76.0
e 52 150 66.0
e 52 232 78.0
e 52 243 47.0
e 52 129 22.0
e 52 109 20.0
e 52 248 96.0
e 52 160 51.0
e 52 179 76.0
e 52 59 61.0
e 52 310 62.0
e 52 139 50.0
e 52 64 50.0
e 52 95 65.0
e 52 276 82.0
e 52 123 88.0
e 52 299 31.0
e 52 236 61.0
e 52 110 19.0
e 52 48 25.0
e 52 69 81.0
e 52 124 75.0
e 52 233 61.0
e 52 279 31.0
e 52 65 75.0
e 52 141 71.0
e 53 88 1.0
e 54 302 11.0
e 54 18 3.0
e 54 144 1.0
e 54 245 2.0
e 58 119 4.0
e 59 105 25.0
e 59 20 82.0
e 59 226 18.0
e 59 123 66.0
e 59 271 4.0
e 59 173 86.0
e 59 290 31.0
e 59 288 64.0
e 59 185 51.0
e 59 34 94.0
e 59 181 19.0
e 59 37 9.0
e 59 2 46.0
e 59 244 52.0
e 59 90 24.0
e 59 178 100.0
e 59 75 28.0
e 59 169 98.0
e 59 49 27.0
e 59 291 8.0
e 59 184 36.0
e 59 208 51.0
e 59 78 31.0
e 59 127 45.0
e 59 277 38.0
e 59 149 27.0
e 60 146 1.0
e 62 257 10.0
e 62 202 9.0
e 62 83 12.0
e 62 50 4.0
e 63 176 4.0
e 64 119 1.0
e 64 99 6.0
e 64 53 5.0
e 66 310 9.0
e 67 174 2.0
e 68 263 4.0
e 68 151 11.0
e 68 179 6.0
e 68 150 90.0
e 69 293 25.0
e 69 198 5.0
e 69 19 24.0
e 69 116 12.0
e 69 191 50.0
e 69 73 92.0
e 69 244 22.0
e 69 317 18.0
e 69 80 27.0
e 69 249 12.0
e 69 145 31.0
e 69 17 83.0
e 69 70 74.0
e 69 150 36.0
e 69 248 50.0
e 69 301 36.0
e 69 318 48.0
e 69 120 86.0
e 69 102 36.0
e 69 25 50.0
e 69 131 69.0
e 69 300 78.0
e 69 53 22.0
e 69 236 63.0
e 69 18 30.0
e 69 302 98.0
e 71 121 43.0
e 71 255 47.0
e 71 24 17.0
e 71 264 67.0
e 71 70 5.0
e 71 157 12.0
e 71 280 25.0
e 71 226 82.0
e 71 293 18.0
e 71 90 8.0
e 71 155 31.0
e 71 294 35.0
e 71 193 9.0
e 71 169 38.0
e 72 261 1.0
e 72 60 16.0
e 72 41 17.0
e 72 75 3.0
e 72 78 6.0
e 72 281 5.0
e 72 262 11.0
e 73 129 10.0
e 73 293 7.0
e 73 168 39.0
e 74 89 53.0
e 74 97 9.0
e 74 199 56.0
e 74 177 7.0
e 76 90 5.0
e 76 5 2.0
e 76 99 5.0
e 76 208 1.0
e 79 92 9.0
e 81 90 20.0
e 81 104 1.0
e 81 182 21.0
e 81 196 7.0
e 81 166 68.0
e 82 211 37.0
e 85 276 3.0
e 89 150 61.0
e 89 13 96.0
e 89 284 51.0
e 89 252 33.0
e 89 9 72.0
e 89 112 71.0
e 89 106 40.0
e 89 48 59.0
e 89 41 95.0
e 89 90 71.0
e 89 231 73.0
e 89 171 84.0
e 89 8 43.0
e 89 232 4.0
e 89 290 56.0
e 89 123 83.0
e 89 115 71.0
e 89 148 3.0
e 89 211 100.0
e 89 152 50.0
e 89 143 13.0
e 89 60 82.0
e 89 105 51.0
e 89 183 74.0
e 89 303 29.0
e 92 116 11.0
e 96 210 6.0
e 96 184 6.0
e 96 123 1.0
e 97 26 1.0
e 97 115 6.0
e 97 228 1.0
e 98 90 1.0
e 101 86 4.0
e 101 80 1.0
e 103 290 3.0
e 105 249 4.0
e 105 288 10.0
e 105 39 5.0
e 105 131 2.0
e 105 11 9.0
e 106 172 82.0
e 106 101 100.0
e 106 245 6.0
e 106 284 38.0
e 106 66 75.0
e 106 72 45.0
e 106 18 13.0
e 106 276 47.0
e 106 138 60.0
e 106 32 79.0
e 106 268 6.0
e 106 300 94.0
e 106 38 98.0
e 106 237 30.0
e 106 198 77.0
e 106 199 68.0
e 106 82 7.0
e 106 50 10.0
e 106 286 95.0
e 106 49 24.0
e 106 274 9.0
e 106 301 22.0
e 106 292 91.0
e 106 137 72.0
e 106 42 10.0
e 106 249 76.0
e 107 266 3.0
e 109 177 4.0
e 110 112 7.0
e 110 234 1.0
e 111 20 11.0
e 111 73 1.0
e 111 268 11.0
e 111 186 2.0
e 112 84 7.0
e 112 178 5.0
e 114 98 1.0
e 116 105 22.0
e 117 143 9.0
e 117 165 11.0
e 117 111 3.0
e 117 81 19.0
e 118 149 8.0
e 121 171 21.0
e 121 314 13.0
e 121 259 3.0
e 121 57 11.0
e 121 131 4.0
e 125 248 84.0
e 125 143 2.0
e 126 123 2.0
e 127 83 8.0
e 134 159 84.0
e 134 26 72.0
e 134 27 13.0
e 134 25 41.0
e 134 40 99.0
e 134 191 12.0
e 134 119 79.0
e 134 274 90.0
e 134 202 67.0
e 134 96 89.0
e 134 34 72.0
e 134 303 24.0
e 134 226 53.0
e 134 105 39.0
e 134 149 80.0
e 134 28 100.0
e 134 275 55.0
e 134 312 46.0
e 134 178 73.0
e 134 112 16.0
e 134 87 3.0
e 134 212 33.0
e 134 136 35.0
e 134 97 46.0
e 134 69 84.0
e 134 143 97.0
e 134 91 12.0
e 135 314 1.0
e 137 305 2.0
e 140 117 45.0
e 140 133 77.0
e 140 108 18.0
e 140 169 32.0
e 140 135 62.0
e 140 228 33.0
e 140 162 79.0
e 140 202 96.0
e 140 142 22.0
e 140 81 71.0
e 140 281 45.0
e 140 198 58.0
e 140 193 46.0
e 140 187 62.0
e 140 67 70.0
e 140 307 56.0
e 140 207 78.0
e 140 314 11.0
e 140 131 6.0
e 140 215 85.0
e 140 149 56.0
e 140 118 25.0
e 140 191 29.0
e 140 189 31.0
e 140 148 89.0
e 140 100 61.0
e 140 104 56.0
e 141 255 10.0
e 145 233 9.0
e 145 101 5.0
e 147 166 59.0
e 147 295 5.0
e 150 158 85.0
e 150 9 86.0
e 150 272 67.0
e 150 291 67.0
e 150 55 25.0
e 150 78 38.0
e 150 97 67.0
e 150 240 81.0
e 150 32 1.0
e 150 218 21.0
e 150 146 62.0
e 150 36 17.0
e 150 273 39.0
e 150 46 12.0
e 150 28 2.0
e 150 70 28.0
e 150 42 23.0
e 150 107 58.0
e 150 212 19.0
e 150 305 23.0
e 150 133 41.0
e 150 2 74.0
e 151 110 7.0
e 152 83 26.0
e 152 103 39.0
e 152 143 59.0
e 152 222 14.0
e 152 223 62.0
e 152 126 24.0
e 152 150 27.0
e 152 133 97.0
e 152 102 38.0
e 152 55 50.0
e 152 53 51.0
e 152 51 92.0
e 152 217 73.0
e 152 273 24.0
e 152 151 70.0
e 152 209 35.0
e 152 185 71.0
e 152 99 91.0
e 152 12 10.0
e 152 204 3.0
e 152 13 57.0
e 152 134 68.0
e 152 189 83.0
e 152 148 25.0
e 152 245 57.0
e 152 135 42.0
e 153 24 3.0
e 153 239 1.0
e 156 165 3.0
e 157 184 2.0
e 157 113 9.0
e 157 283 6.0
e 160 115 22.0
e 160 57 15.0
e 160 16 3.0
e 160 46 16.0
e 160 314 20.0
e 160 202 8.0
e 162 198 4.0
e 162 78 48.0
e 162 91 42.0
e 162 223 18.0
e 162 216 39.0
e 162 75 13.0
e 162 89 75.0
e 162 119 92.0
e 162 28 50.0
e 162 154 54.0
e 162 13 31.0
e 162 260 77.0
e 162 185 52.0
e 162 27 85.0
e 162 38 81.0
e 162 116 52.0
e 162 66 44.0
e 162 170 62.0
e 162 230 76.0
e 162 76 40.0
e 162 60 62.0
e 162 191 34.0
e 162 253 40.0
e 162 195 62.0
e 162 272 32.0
e 162 271 87.0
e 163 294 5.0
e 163 308 5.0
e 164 121 19.0
e 166 304 88.0
e 166 27 1.0
e 166 252 99.0
e 166 118 68.0
e 166 175 16.0
e 166 310 41.0
e 166 111 10.0
e 166 130 23.0
e 166 57 60.0
e 166 88 4.0
e 166 282 24.0
e 166 174 15.0
e 166 220 29.0
e 166 187 48.0
e 166 76 51.0
e 166 195 72.0
e 166 119 23.0
e 166 112 56.0
e 166 62 26.0
e 166 311 51.0
e 166 26 9.0
e 166 49 35.0
e 166 151 62.0
e 168 85 4.0
e 168 263 71.0
e 168 88 62.0
e 168 169 72.0
e 168 109 4.0
e 168 84 89.0
e 168 103 4.0
e 168 43 42.0
e 168 277 4.0
e 168 153 70.0
e 168 240 71.0
e 168 318 87.0
e 168 267 51.0
e 168 138 6.0
e 168 128 14.0
e 168 296 26.0
e 168 120 54.0
e 168 246 10.0
e 168 237 57.0
e 168 215 95.0
e 168 27 92.0
e 168 185 72.0
e 168 121 27.0
e 168 203 65.0
e 168 175 39.0
e 168 248 90.0
e 170 224 6.0
e 170 150 28.0
e 170 210 6.0
e 176 261 2.0
e 178 171 4.0
e 178 227 19.0
e 178 287 16.0
e 178 80 13.0
e 180 248 2.0
e 180 33 19.0
e 180 195 77.0
e 180 49 93.0
e 180 318 54.0
e 180 244 23.0
e 180 55 11.0
e 181 94 63.0
e 181 159 26.0
e 181 49 53.0
e 181 280 73.0
e 181 240 84.0
e 181 6 97.0
e 181 38 46.0
e 181 122 12.0
e 181 260 44.0
e 181 143 71.0
e 181 47 76.0
e 181 34 96.0
e 181 13 27.0
e 181 316 82.0
e 181 113 83.0
e 181 70 16.0
e 181 0 44.0
e 181 191 91.0
e 181 297 7.0
e 181 140 67.0
e 181 72 21.0
e 181 67 38.0
e 181 50 93.0
e 181 281 76.0
e 181 63 9.0
e 181 256 26.0
e 183 301 17.0
e 190 156 7.0
e 190 30 69.0
e 191 22 24.0
e 191 270 45.0
e 191 293 96.0
e 191 95 78.0
e 191 8 53.0
e 191 122 50.0
e 191 44 72.0
e 191 126 16.0
e 191 9 4.0
e 191 23 50.0
e 191 227 42.0
e 191 54 76.0
e 191 189 46.0
e 191 269 67.0
e 191 312 42.0
e 191 183 58.0
e 191 223 84.0
e 191 58 73.0
e 191 232 38.0
e 191 108 49.0
e 191 304 62.0
e 192 41 6.0
e 194 106 60.0
e 194 231 41.0
e 194 18 8.0
e 194 312 59.0
e 194 86 22.0
e 194 123 38.0
e 194 220 33.0
e 194 165 29.0
e 194 124 10.0
e 194 282 43.0
e 194 171 33.0
e 194 266 32.0
e 194 222 23.0
e 194 242 49.0
e 195 52 39.0
e 195 192 58.0
e 195 53 33.0
e 195 157 100.0
e 195 27 22.0
e 195 233 59.0
e 195 196 47.0
e 195 78 80.0
e 195 245 66.0
e 195 186 1.0
e 195 277 73.0
e 195 243 90.0
e 195 275 28.0
e 195 32 89.0
e 195 254 29.0
e 195 153 81.0
e 195 296 15.0
e 195 200 31.0
e 195 85 87.0
e 195 22 44.0
e 195 299 81.0
e 196 145 2.0
e 196 199 40.0
e 197 163 2.0
e 199 79 49.0
e 199 77 11.0
e 199 222 9.0
e 199 278 24.0
e 199 48 5.0
e 199 109 82.0
e 199 121 31.0
e 199 307 50.0
e 199 257 17.0
e 199 167 62.0
e 199 208 36.0
e 199 24 4.0
e 199 237 56.0
e 199 25 58.0
e 199 258 22.0
e 199 277 31.0
e 199 148 28.0
e 199 288 87.0
e 199 232 9.0
e 199 183 46.0
e 199 279 5.0
e 199 11 70.0
e 199 249 34.0
e 199 244 51.0
e 200 120 7.0
e 200 13 7.0
e 200 276 6.0
e 200 117 3.0
e 200 11 14.0
e 200 160 13.0
e 205 136 1.0
e 206 147 3.0
e 207 57 1.0
e 207 26 7.0
e 209 200 6.0
e 209 23 8.0
e 211 155 26.0
e 211 255 21.0
e 211 25 28.0
e 211 73 91.0
e 211 111 73.0
e 211 133 20.0
e 211 54 12.0
e 211 100 4.0
e 211 198 54.0
e 211 60 51.0
e 211 167 6.0
e 211 294 47.0
e 211 19 21.0
e 211 118 29.0
e 211 85 35.0
e 211 34 64.0
e 211 312 65.0
e 211 276 8.0
e 211 141 25.0
e 211 17 4.0
e 211 64 13.0
e 211 186 95.0
e 211 295 47.0
e 211 103 12.0
e 214 164 1.0
e 216 183 4.0
e 219 208 20.0
e 219 283 9.0
e 219 288 19.0
e 219 205 11.0
e 219 198 13.0
e 219 308 6.0
e 221 1 93.0
e 221 178 4.0
e 221 124 47.0
e 221 19 67.0
e 221 256 83.0
e 221 7 60.0
e 221 83 16.0
e 221 266 38.0
e 221 295 67.0
e 221 252 87.0
e 221 52 28.0
e 221 104 95.0
e 221 253 56.0
e 221 260 16.0
e 221 125 39.0
e 221 161 29.0
e 221 286 70.0
e 221 145 61.0
e 221 223 75.0
e 221 220 81.0
e 221 265 5.0
e 221 45 39.0
e 221 201 56.0
e 221 157 89.0
e 221 165 100.0
e 221 36 48.0
e 221 173 45.0
e 224 26 2.0
e 225 185 5.0
e 226 126 39.0
e 226 41 78.0
e 226 14 41.0
e 226 100 3.0
e 226 101 46.0
e 226 194 5.0
e 226 132 80.0
e 226 5 78.0
e 226 160 19.0
e 226 229 16.0
e 226 12 38.0
e 226 251 55.0
e 226 206 65.0
e 226 175 6.0
e 226 291 16.0
e 226 50 92.0
e 226 133 28.0
e 226 209 21.0
e 226 106 87.0
e 226 6 41.0
e 226 282 43.0
e 226 272 59.0
e 226 252 37.0
e 230 81 19.0
e 233 185 54.0
e 233 216 3.0
e 233 219 64.0
e 233 260 89.0
e 233 194 64.0
e 233 171 14.0
e 233 172 25.0
e 233 175 42.0
e 233 230 66.0
e 233 4 17.0
e 233 120 15.0
e 233 43 86.0
e 233 198 74.0
e 233 193 65.0
e 233 250 77.0
e 233 105 67.0
e 233 81 1.0
e 233 199 76.0
e 233 28 58.0
e 233 283 78.0
e 233 152 38.0
e 233 141 56.0
e 233 160 15.0
e 234 287 5.0
e 235 140 18.0
e 236 280 37.0
e 236 24 85.0
e 236 25 34.0
e 236 244 45.0
e 236 251 8.0
e 236 201 12.0
e 236 243 16.0
e 236 57 88.0
e 236 87 84.0
e 236 240 91.0
e 236 217 35.0
e 236 276 79.0
e 236 127 85.0
e 236 144 50.0
e 236 288 99.0
e 236 252 64.0
e 236 203 6.0
e 236 303 9.0
e 236 29 7.0
e 236 245 62.0
e 236 193 80.0
e 236 216 42.0
e 236 306 85.0
e 236 241 74.0
e 236 259 73.0
e 238 289 20.0
e 246 294 65.0
e 246 210 39.0
e 246 191 10.0
e 246 189 47.0
e 246 72 17.0
e 246 247 97.0
e 246 224 52.0
e 246 45 47.0
e 246 116 26.0
e 246 14 54.0
e 246 88 9.0
e 246 315 85.0
e 246 232 20.0
e 246 105 28.0
e 246 106 63.0
e 246 274 89.0
e 246 174 6.0
e 246 85 27.0
e 246 263 3.0
e 246 100 87.0
e 246 52 45.0
e 246 280 73.0
e 246 181 25.0
e 246 9 89.0
e 246 173 20.0
e 246 225 36.0
e 248 216 1.0
e 248 303 55.0
e 248 252 34.0
e 248 72 34.0
e 248 49 47.0
e 248 184 67.0
e 248 212 18.0
e 248 275 59.0
e 248 273 40.0
e 248 97 12.0
e 248 176 38.0
e 248 247 88.0
e 248 111 18.0
e 248 207 4.0
e 248 146 91.0
e 248 80 69.0
e 248 94 28.0
e 248 187 3.0
e 248 91 54.0
e 248 213 40.0
e 248 153 20.0
e 251 46 18.0
e 251 271 5.0
e 251 274 22.0
e 251 190 18.0
e 252 113 11.0
e 253 254 55.0
e 253 292 28.0
e 253 107 75.0
e 253 180 9.0
e 253 295 12.0
e 253 208 86.0
e 253 256 100.0
e 253 271 18.0
e 253 193 49.0
e 253 229 59.0
e 253 75 79.0
e 253 97 33.0
e 253 185 70.0
e 253 15 66.0
e 253 111 92.0
e 253 167 80.0
e 253 19 86.0
e 253 95 91.0
e 253 113 68.0
e 253 106 74.0
e 253 39 87.0
e 253 79 88.0
e 253 243 63.0
e 253 274 49.0
e 258 256 5.0
e 260 161 76.0
e 260 222 68.0
e 260 160 95.0
e 260 190 35.0
e 260 144 100.0
e 260 272 13.0
e 260 263 96.0
e 260 35 35.0
e 260 22 3.0
e 260 241 12.0
e 260 112 78.0
e 260 32 11.0
e 260 157 4.0
e 260 87 67.0
e 260 182 16.0
e 260 225 83.0
e 260 316 29.0
e 260 283 87.0
e 260 174 14.0
e 260 107 51.0
e 260 254 52.0
e 260 140 69.0
e 260 207 15.0
e 264 77 70.0
e 264 113 66.0
e 264 143 16.0
e 264 216 10.0
e 264 144 1.0
e 264 224 11.0
e 264 194 26.0
e 264 152 74.0
e 264 175 41.0
e 264 112 51.0
e 264 317 20.0
e 264 35 38.0
e 264 60 87.0
e 264 289 88.0
e 264 202 19.0
e 264 239 50.0
e 264 120 20.0
e 264 87 31.0
e 264 314 39.0
e 264 79 80.0
e 264 294 1.0
e 264 140 26.0
e 264 228 49.0
e 264 285 91.0
e 264 103 18.0
e 267 41 47.0
e 267 19 4.0
e 267 5 69.0
e 267 271 84.0
e 267 212 85.0
e 267 156 86.0
e 267 83 32.0
e 267 169 7.0
e 267 79 7.0
e 267 35 64.0
e 267 124 49.0
e 267 137 25.0
e 267 138 64.0
e 267 309 2.0
e 267 151 69.0
e 267 163 70.0
e 267 10 76.0
e 267 54 22.0
e 267 238 61.0
e 267 308 12.0
e 267 22 65.0
e 267 148 34.0
e 267 265 67.0
e 267 197 24.0
e 267 144 86.0
e 278 271 30.0
e 278 125 94.0
e 278 254 66.0
e 278 171 63.0
e 278 236 37.0
e 278 313 59.0
e 278 118 58.0
e 278 211 58.0
e 278 299 18.0
e 278 264 22.0
e 278 92 13.0
e 278 52 11.0
e 278 190 28.0
e 278 216 89.0
e 278 294 8.0
e 278 113 22.0
e 278 73 45.0
e 278 253 92.0
e 278 41 100.0
e 278 155 78.0
e 278 111 60.0
e 278 280 86.0
e 278 230 11.0
e 278 196 74.0
e 278 281 91.0
e 278 268 9.0
e 284 87 6.0
e 284 281 17.0
e 284 299 1.0
e 284 80 8.0
e 284 110 10.0
e 289 208 2.0
e 289 174 25.0
e 289 78 10.0
e 289 134 35.0
e 289 28 10.0
e 298 70 73.0
e 298 283 7.0
e 298 226 1.0
e 298 228 41.0
e 298 227 23.0
e 298 268 26.0
e 298 67 65.0
e 298 144 15.0
e 298 75 61.0
e 298 245 48.0
e 298 224 62.0
e 298 241 62.0
e 298 266 76.0
e 298 302 36.0
e 298 315 98.0
e 298 134 7.0
e 298 182 14.0
e 298 79 14.0
e 298 220 44.0
e 298 82 7.0
e 298 118 62.0
e 298 316 24.0
e 298 102 77.0
e 298 50 4.0
e 298 101 87.0
e 298 272 48.0
e 298 177 28.0
e 300 86 22.0
e 300 79 22.0
e 300 177 3.0
e 300 187 2.0
e 301 177 47.0
e 301 191 43.0
e 301 199 12.0
e 301 20 61.0
e 301 1 67.0
e 301 281 40.0
e 301 270 57.0
e 301 122 31.0
e 301 211 9.0
e 301 64 19.0
e 301 212 52.0
e 301 32 48.0
e 301 261 95.0
e 301 71 37.0
e 301 217 27.0
e 301 218 50.0
e 301 186 15.0
e 301 234 71.0
e 301 104 9.0
e 301 153 37.0
e 301 262 70.0
e 301 14 92.0
e 301 61 71.0
e 303 176 38.0
e 303 282 22.0
e 303 145 93.0
e 303 80 82.0
e 303 227 69.0
e 303 150 79.0
e 303 152 20.0
e 303 275 14.0
e 303 37 91.0
e 303 249 61.0
e 303 125 39.0
e 303 280 64.0
e 303 139 27.0
e 303 286 43.0
e 303 203 28.0
e 303 208 3.0
e 303 8 88.0
e 303 100 61.0
e 303 22 92.0
e 303 15 91.0
e 303 157 60.0
e 303 298 81.0
e 303 46 25.0
e 305 187 5.0
e 309 53 5.0
e 310 124 7.0
e 311 292 67.0
e 311 226 48.0
e 311 29 77.0
e 311 137 48.0
e 311 68 57.0
e 311 77 48.0
e 311 242 82.0
e 311 55 8.0
e 311 135 25.0
e 311 14 30.0
e 311 222 39.0
e 311 112 11.0
e 311 114 53.0
e 311 293 91.0
e 311 163 55.0
e 311 306 21.0
e 311 130 6.0
e 311 213 60.0
e 311 275 75.0
e 311 300 23.0
e 311 115 89.0
e 311 282 1.0
e 311 128 47.0
e 311 186 77.0
e 311 318 21.0
e 312 127 12.0
e 312 244 28.0
e 312 81 74.0
e 312 40 76.0
e 312 220 4.0
e 312 60 50.0
e 312 158 37.0
e 312 67 18.0
e 312 274 69.0
e 312 268 54.0
e 312 269 6.0
e 312 9 32.0
e 312 154 73.0
e 312 139 21.0
e 312 19 68.0
e 312 47 50.0
e 312 71 67.0
e 312 112 42.0
e 312 120 92.0
e 312 288 5.0
e 312 187 69.0
e 312 149 24.0
e 312 298 74.0
e 313 81 1.0
e 313 312 92.0
e 313 104 12.0
e 313 42 18.0
e 313 289 19.0
e 313 263 8.0
e 316 286 19.0
e 316 127 11.0
e 316 15 25.0
e 316 122 20.0
e 318 191 28.0
e 318 170 7.0
e 318 240 48.0
e 318 35 64.0
e 318 127 46.0
e 318 309 93.0
e 318 76 46.0
e 318 167 67.0
e 318 148 53.0
e 318 10 41.0
e 318 4 95.0
e 318 236 21.0
e 318 268 49.0
e 318 202 66.0
e 318 0 11.0
e 318 215 92.0
e 318 208 72.0
e 318 48 81.0
e 318 5 78.0
e 318 243 54.0
e 318 118 98.0
e 318 94 77.0
e 319 240 1.0
e 319 195 41.0
